p cnf 125 375
1 -125 -76 0
1 -125 -54 0
1 -125 30 0
1 -124 -52 0
1 -124 8 0
1 -124 91 0
1 -123 -97 0
1 -123 25 0
1 -123 58 0
1 -122 -92 0
1 -122 24 0
1 -122 39 0
1 -121 19 0
1 -121 44 0
1 -121 102 0
1 -120 -4 0
1 -120 42 0
1 -120 90 0
1 -119 -118 0
1 -119 -32 0
1 -119 71 0
1 -118 -14 0
1 -118 -11 0
1 -117 -102 0
1 -117 -36 0
1 -117 -25 0
1 -116 -75 0
1 -116 -20 0
1 -116 43 0
1 -115 -87 0
1 -115 51 0
1 -115 124 0
1 -114 84 0
1 -114 86 0
1 -114 116 0
1 -113 -51 0
1 -113 45 0
1 -113 108 0
1 -112 -76 0
1 -112 -52 0
1 -112 8 0
1 -111 -102 0
1 -111 46 0
1 -111 122 0
1 -110 14 0
1 -110 83 0
1 -110 108 0
1 -109 -39 0
1 -109 44 0
1 -109 120 0
1 -108 -9 0
1 -108 61 0
1 -108 96 0
1 -107 -68 0
1 -107 -38 0
1 -107 -29 0
1 -106 -6 0
1 -106 83 0
1 -106 114 0
1 -105 10 0
1 -105 26 0
1 -105 76 0
1 -104 -98 0
1 -104 29 0
1 -104 64 0
1 -103 -84 0
1 -103 -47 0
1 -103 20 0
1 -102 -13 0
1 -101 -78 0
1 -101 22 0
1 -101 109 0
1 -100 -88 0
1 -100 -31 0
1 -100 47 0
1 -99 19 0
1 -99 72 0
1 -99 76 0
1 -98 56 0
1 -98 87 0
1 -97 -55 0
1 -97 69 0
1 -96 6 0
1 -96 17 0
1 -96 123 0
1 -95 -69 0
1 -95 33 0
1 -95 102 0
1 -94 -16 0
1 -94 10 0
1 -94 34 0
1 -93 -33 0
1 -93 9 0
1 -93 15 0
1 -92 -74 0
1 -92 68 0
1 -91 -48 0
1 -91 -27 0
1 -91 -12 0
1 -90 -89 0
1 -90 -27 0
1 -90 49 0
1 -89 -81 0
1 -89 -30 0
1 -88 -16 0
1 -88 -5 0
1 -87 -23 0
1 -87 -19 0
1 -86 -9 0
1 -86 31 0
1 -86 96 0
1 -85 -50 0
1 -85 -22 0
1 -85 30 0
1 -84 -18 0
1 -84 120 0
1 -83 -45 0
1 -83 -38 0
1 -83 -1 0
1 -82 -55 0
1 -82 -36 0
1 -82 53 0
1 -81 -43 0
1 -81 9 0
1 -80 -4 0
1 -80 83 0
1 -80 105 0
1 -79 -58 0
1 -79 -19 0
1 -79 51 0
1 -78 -24 0
1 -78 57 0
1 -77 -35 0
1 -77 5 0
1 -77 107 0
1 -76 -60 0
1 -75 11 0
1 -75 97 0
1 -74 2 0
1 -74 34 0
1 -73 15 0
1 -73 65 0
1 -73 68 0
1 -72 35 0
1 -72 52 0
1 -72 97 0
1 -71 37 0
1 -71 93 0
1 -71 94 0
1 -70 9 0
1 -70 64 0
1 -70 111 0
1 -69 15 0
1 -69 67 0
1 -68 -17 0
1 -68 56 0
1 -67 28 0
1 -67 80 0
1 -67 82 0
1 -66 78 0
1 -66 80 0
1 -66 86 0
1 -65 55 0
1 -65 113 0
1 -65 125 0
1 -64 -21 0
1 -64 13 0
1 -64 33 0
1 -63 -47 0
1 -63 -35 0
1 -63 38 0
1 -62 -10 0
1 -62 5 0
1 -62 16 0
1 -61 22 0
1 -61 40 0
1 -61 113 0
1 -60 -25 0
1 -60 101 0
1 -59 -35 0
1 -59 -2 0
1 -59 105 0
1 -58 -50 0
1 -58 39 0
1 -57 -49 0
1 -57 -34 0
1 -57 -3 0
1 -56 -11 0
1 -56 77 0
1 -56 104 0
1 -55 110 0
1 -54 -52 0
1 -54 92 0
1 -53 -33 0
1 -53 -21 0
1 -53 77 0
1 -51 73 0
1 -51 100 0
1 -50 25 0
1 -49 50 0
1 -49 75 0
1 -48 -42 0
1 -48 14 0
1 -47 -24 0
1 -46 -5 0
1 -46 41 0
1 -46 110 0
1 -45 -13 0
1 -45 5 0
1 -44 11 0
1 -44 18 0
1 -44 35 0
1 -43 4 0
1 -43 103 0
1 -42 4 0
1 -42 93 0
1 -41 -18 0
1 -41 -2 0
1 -41 47 0
1 -40 -5 0
1 -40 -4 0
1 -40 50 0
1 -39 42 0
1 -39 79 0
1 -38 -31 0
1 -37 3 0
1 -37 95 0
1 -37 117 0
1 -36 76 0
1 -34 37 0
1 -34 121 0
1 -33 122 0
1 -32 6 0
1 -32 28 0
1 -31 24 0
1 -30 -1 0
1 -30 109 0
1 -29 57 0
1 -29 106 0
1 -28 -26 0
1 -28 57 0
1 -28 88 0
1 -27 85 0
1 -26 48 0
1 -26 106 0
1 -25 -22 0
1 -24 113 0
1 -23 -10 0
1 -23 -3 0
1 -22 88 0
1 -21 66 0
1 -20 35 0
1 -20 49 0
1 -19 89 0
1 -18 75 0
1 -17 -10 0
1 -17 23 0
1 -16 3 0
1 -15 13 0
1 -15 61 0
1 -15 105 0
1 -14 -6 0
1 -14 91 0
1 -13 36 0
1 -12 23 0
1 -12 99 0
1 -11 18 0
1 -9 41 0
1 -8 -2 0
1 -8 30 0
1 -8 32 0
1 -7 41 0
1 -7 82 0
1 -7 85 0
1 -6 59 0
1 -3 52 0
1 -1 100 0
1 1 56 0
1 1 67 0
1 1 85 0
1 2 67 0
1 2 80 0
1 3 12 0
1 4 79 0
1 6 31 0
1 7 50 0
1 7 84 0
1 7 104 0
1 8 28 0
1 10 37 0
1 11 21 0
1 12 66 0
1 12 107 0
1 13 100 0
1 14 40 0
1 16 39 0
1 16 82 0
1 17 69 0
1 17 74 0
1 18 87 0
1 19 78 0
1 20 36 0
1 20 124 0
1 21 27 0
1 21 33 0
1 22 60 0
1 23 81 0
1 24 25 0
1 26 72 0
1 26 120 0
1 27 34 0
1 27 109 0
1 29 49 0
1 29 87 0
1 31 110 0
1 32 62 0
1 32 115 0
1 36 81 0
1 38 107 0
1 38 111 0
1 40 108 0
1 42 98 0
1 43 58 0
1 43 59 0
1 44 123 0
1 45 88 0
1 45 92 0
1 46 54 0
1 46 104 0
1 47 101 0
1 48 70 0
1 48 91 0
1 51 117 0
1 52 69 0
1 53 54 0
1 53 106 0
1 54 112 0
1 55 65 0
1 55 66 0
1 58 90 0
1 59 71 0
1 60 86 0
1 60 116 0
1 61 101 0
1 62 94 0
1 62 118 0
1 63 78 0
1 63 90 0
1 63 121 0
1 64 115 0
1 65 89 0
1 68 119 0
1 70 73 0
1 70 125 0
1 71 81 0
1 72 79 0
1 73 96 0
1 74 98 0
1 74 118 0
1 75 125 0
1 77 119 0
1 84 94 0
1 89 112 0
1 92 102 0
1 93 115 0
1 95 118 0
1 95 119 0
1 97 123 0
1 98 117 0
1 99 103 0
1 99 122 0
1 103 116 0
1 111 114 0
1 112 114 0
1 121 124 0
